p tw 100 593
1 39
1 46
1 74
2 8
2 30
2 77
3 4
3 14
3 64
4 5
4 9
4 99
5 21
5 67
6 11
6 12
6 16
6 22
6 26
6 29
6 33
6 34
6 38
6 57
6 58
7 11
7 14
7 16
7 17
7 18
7 21
7 23
7 28
7 34
7 39
7 41
7 43
7 46
7 53
7 56
7 57
7 58
7 60
8 9
8 11
8 12
8 16
8 18
8 19
8 22
8 30
8 32
8 33
8 35
8 36
8 38
8 42
8 46
8 47
8 50
8 51
8 52
8 53
8 59
8 60
8 68
8 84
9 10
9 16
9 17
9 19
9 20
9 26
9 32
9 35
9 36
9 38
9 39
9 40
9 42
9 43
9 48
9 50
9 51
9 52
9 59
9 99
10 11
10 12
10 13
10 14
10 19
10 20
10 28
10 29
10 30
10 34
10 35
10 37
10 38
10 42
10 46
10 47
10 49
10 53
10 55
10 58
11 12
11 15
11 16
11 33
11 34
11 35
11 36
11 40
11 41
11 43
11 44
11 47
11 48
11 50
11 53
12 20
12 25
12 27
12 33
12 34
12 38
12 47
12 55
12 59
12 65
13 17
13 19
13 21
13 25
13 41
13 42
13 44
13 45
13 49
13 51
13 53
13 55
13 59
14 16
14 18
14 20
14 28
14 39
14 51
14 53
14 54
14 57
14 59
15 20
15 22
15 24
15 38
15 39
15 42
15 43
15 45
15 48
15 51
15 53
15 55
15 56
15 58
16 17
16 25
16 26
16 32
16 33
16 41
16 47
16 49
16 53
16 56
16 58
16 59
16 63
16 65
16 70
16 80
16 89
16 91
17 18
17 20
17 23
17 24
17 25
17 31
17 33
17 36
17 38
17 39
17 41
17 43
17 44
17 47
17 52
17 54
17 63
18 20
18 23
18 25
18 32
18 33
18 34
18 36
18 39
18 42
18 45
18 46
18 47
18 50
18 53
18 58
18 59
18 60
18 72
18 85
18 90
18 93
18 96
18 97
19 35
19 40
19 49
19 50
19 54
19 55
19 57
19 59
19 60
20 31
20 34
20 36
20 39
20 41
20 42
20 43
20 45
20 52
20 54
20 55
20 59
21 25
21 27
21 30
21 34
21 36
21 38
21 41
21 42
21 43
21 53
21 59
21 67
21 78
21 89
21 95
22 25
22 26
22 29
22 33
22 36
22 38
22 39
22 40
22 48
22 49
22 50
22 52
22 54
22 56
22 58
23 28
23 31
23 33
23 37
23 39
23 47
23 57
23 72
24 26
24 27
24 32
24 34
24 38
24 39
24 40
24 44
24 45
24 47
24 52
24 55
24 56
24 58
24 59
24 60
24 71
24 81
24 87
24 89
24 98
25 26
25 29
25 32
25 35
25 43
25 47
25 52
25 53
25 54
25 55
25 56
25 59
26 27
26 29
26 34
26 36
26 39
26 42
26 47
26 49
26 52
26 54
26 95
27 29
27 30
27 31
27 38
27 39
27 44
27 53
27 54
27 55
27 96
28 32
28 34
28 35
28 36
28 38
28 42
28 43
28 51
28 52
28 57
28 58
28 60
29 30
29 32
29 41
29 42
29 47
29 52
29 53
29 54
29 56
29 58
30 34
30 35
30 36
30 43
30 47
30 48
30 49
30 55
30 56
30 57
30 59
30 60
30 77
31 35
31 36
31 38
31 39
31 42
31 44
31 47
31 50
31 51
31 53
31 54
31 59
31 60
32 35
32 38
32 41
32 47
32 53
32 59
32 60
32 82
32 86
32 88
32 100
33 34
33 35
33 37
33 38
33 39
33 45
33 46
33 53
33 54
33 56
33 58
33 59
34 37
34 39
34 42
34 43
34 45
34 48
34 54
34 58
34 59
34 60
34 61
34 66
34 69
34 86
34 94
35 38
35 43
35 44
35 45
35 46
35 47
35 48
35 49
35 50
35 60
36 39
36 41
36 42
36 43
36 50
36 51
36 53
36 57
36 58
36 59
36 60
37 42
37 45
37 46
37 49
37 52
37 53
37 59
38 40
38 41
38 42
38 45
38 54
38 55
38 57
38 59
38 64
38 87
39 40
39 42
39 44
39 51
39 54
39 56
39 59
39 60
39 62
39 73
39 74
40 48
40 50
40 52
40 56
40 58
40 60
41 43
41 47
41 49
41 52
41 56
41 59
42 43
42 47
42 49
42 51
42 52
42 53
42 57
43 48
43 51
43 57
43 59
43 60
44 45
44 47
44 56
44 94
45 46
45 52
45 53
45 59
46 52
46 53
46 59
47 55
47 56
47 60
48 49
48 50
48 54
48 55
48 59
48 69
48 83
49 52
49 54
49 55
49 58
50 51
50 53
50 54
50 57
50 59
50 60
50 62
51 53
51 60
52 56
52 58
52 59
52 72
52 75
52 76
52 79
52 92
53 57
53 58
53 59
54 55
54 58
55 60
56 57
56 58
58 60
60 61
61 66
61 86
62 73
63 89
64 87
65 91
66 68
66 94
67 68
68 84
69 83
70 71
70 80
71 81
72 74
72 75
73 75
74 75
75 76
76 77
76 97
78 80
78 95
79 80
79 81
79 82
79 92
80 82
82 88
83 85
84 85
85 97
85 100
87 98
88 90
89 90
90 93
91 100
92 93
96 97
97 98
99 100
